812.57
0 30 48 47 36 69 71 60 70 20 37 5 29 0 
0 63 49 24 23 56 41 42 64 43 1 73 0 
0 58 10 31 25 55 18 50 32 44 0 
0 38 11 65 66 59 14 19 0 
0 51 16 33 62 28 22 61 21 74 68 0 
0 17 3 40 9 39 72 12 26 0 
0 52 27 15 57 13 54 8 46 35 53 7 0 
0 67 4 34 45 2 6 75 0 
